137 300 20 43 17 21 30 39 19 34 40 17 50 42 20 49 38 42 37 44 31 11 36 10 44 44 23 16 28 42 11 21 43 21 15 11 34 35 41 45 19 30 12 20 22 22 19 50 15 48 43 38 11 30 38 45 25 12 10 44 45 13 16 39 27 21 41 10 48 31 46 16 12 50 27 24 21 38 25 28 37 19 15 38 39 43 34 14 48 37 50 42 40 15 32 16 28 22 19 25 45 16 34 48 15 12 23 28 40 39 46 28 48 12 18 37 47 44 43 44 30 42 37 22 47 19 28 26 33 39 41 28 45 26 27 11 28 40 29 